language ESSENCE' 1.0

letting C_FunctionND be
        [[0, 0, 0, 0, 0, 0, 0, 0, 0, 0, 0; int(0..10)], [1, 0, 0, 0, 0, 0, 0, 0, 0, 0, 0; int(0..10)],
         [1, 0, 0, 0, 0, 0, 0, 0, 0, 0, 0; int(0..10)], [1, 0, 0, 0, 0, 0, 0, 0, 0, 0, 0; int(0..10)],
         [1, 0, 0, 0, 0, 0, 0, 0, 0, 0, 0; int(0..10)], [1, 0, 0, 0, 0, 0, 0, 0, 0, 0, 0; int(0..10)],
         [1, 0, 0, 0, 0, 0, 0, 0, 0, 0, 0; int(0..10)], [1, 0, 0, 0, 0, 0, 0, 0, 0, 0, 0; int(0..10)],
         [1, 0, 0, 0, 0, 0, 0, 0, 0, 0, 0; int(0..10)], [1, 0, 0, 0, 0, 0, 0, 0, 0, 0, 0; int(0..10)],
         [0, 1, 1, 1, 1, 1, 1, 1, 1, 1, 0; int(0..10)];
             int(0..10)]
$ Visualisation for C_FunctionND
$ 0 0 0 0 0 0 0 0 0 0 0
$ 1 0 0 0 0 0 0 0 0 0 0
$ 1 0 0 0 0 0 0 0 0 0 0
$ 1 0 0 0 0 0 0 0 0 0 0
$ 1 0 0 0 0 0 0 0 0 0 0
$ 1 0 0 0 0 0 0 0 0 0 0
$ 1 0 0 0 0 0 0 0 0 0 0
$ 1 0 0 0 0 0 0 0 0 0 0
$ 1 0 0 0 0 0 0 0 0 0 0
$ 1 0 0 0 0 0 0 0 0 0 0
$ 0 1 1 1 1 1 1 1 1 1 0

letting J_FunctionND be
        [[0, 1, 2, 3, 4, 5, 6, 7, 8, 9, 10; int(0..10)], [1, 1, 10, 10, 10, 10, 10, 10, 10, 10, 10; int(0..10)],
         [2, 10, 2, 10, 10, 10, 10, 10, 10, 10, 10; int(0..10)], [3, 10, 10, 3, 10, 10, 10, 10, 10, 10, 10; int(0..10)],
         [4, 10, 10, 10, 4, 10, 10, 10, 10, 10, 10; int(0..10)], [5, 10, 10, 10, 10, 5, 10, 10, 10, 10, 10; int(0..10)],
         [6, 10, 10, 10, 10, 10, 6, 10, 10, 10, 10; int(0..10)], [7, 10, 10, 10, 10, 10, 10, 7, 10, 10, 10; int(0..10)],
         [8, 10, 10, 10, 10, 10, 10, 10, 8, 10, 10; int(0..10)], [9, 10, 10, 10, 10, 10, 10, 10, 10, 9, 10; int(0..10)],
         [10, 10, 10, 10, 10, 10, 10, 10, 10, 10, 10; int(0..10)];
             int(0..10)]
$ Visualisation for J_FunctionND
$  0  1  2  3  4  5  6  7  8  9 10
$  1  1 10 10 10 10 10 10 10 10 10
$  2 10  2 10 10 10 10 10 10 10 10
$  3 10 10  3 10 10 10 10 10 10 10
$  4 10 10 10  4 10 10 10 10 10 10
$  5 10 10 10 10  5 10 10 10 10 10
$  6 10 10 10 10 10  6 10 10 10 10
$  7 10 10 10 10 10 10  7 10 10 10
$  8 10 10 10 10 10 10 10  8 10 10
$  9 10 10 10 10 10 10 10 10  9 10
$ 10 10 10 10 10 10 10 10 10 10 10

letting M_FunctionND be
        [[0, 0, 0, 0, 0, 0, 0, 0, 0, 0, 0; int(0..10)], [0, 1, 0, 0, 0, 0, 0, 0, 0, 0, 1; int(0..10)],
         [0, 0, 2, 0, 0, 0, 0, 0, 0, 0, 2; int(0..10)], [0, 0, 0, 3, 0, 0, 0, 0, 0, 0, 3; int(0..10)],
         [0, 0, 0, 0, 4, 0, 0, 0, 0, 0, 4; int(0..10)], [0, 0, 0, 0, 0, 5, 0, 0, 0, 0, 5; int(0..10)],
         [0, 0, 0, 0, 0, 0, 6, 0, 0, 0, 6; int(0..10)], [0, 0, 0, 0, 0, 0, 0, 7, 0, 0, 7; int(0..10)],
         [0, 0, 0, 0, 0, 0, 0, 0, 8, 0, 8; int(0..10)], [0, 0, 0, 0, 0, 0, 0, 0, 0, 9, 9; int(0..10)],
         [0, 1, 2, 3, 4, 5, 6, 7, 8, 9, 10; int(0..10)];
             int(0..10)]
$ Visualisation for M_FunctionND
$  0  0  0  0  0  0  0  0  0  0  0
$  0  1  0  0  0  0  0  0  0  0  1
$  0  0  2  0  0  0  0  0  0  0  2
$  0  0  0  3  0  0  0  0  0  0  3
$  0  0  0  0  4  0  0  0  0  0  4
$  0  0  0  0  0  5  0  0  0  0  5
$  0  0  0  0  0  0  6  0  0  0  6
$  0  0  0  0  0  0  0  7  0  0  7
$  0  0  0  0  0  0  0  0  8  0  8
$  0  0  0  0  0  0  0  0  0  9  9
$  0  1  2  3  4  5  6  7  8  9 10

letting R_Function1D be [0, 1, 1, 1, 1, 1, 1, 1, 1, 1, 2; int(0..10)]
